InboundTrucks  = 12;
OutboundTrucks = 8;
ReleaseTime    = [9,22,10,35,11,24,18,27,36,2,33,34];
UnloadTime     = [20,24,17,29,29,6,24,26,13,15,8,17];
LoadTime       = [5,3,2,6,20,19,15,17];
TransferTime   = [| 4,9,9,3,8,10,7,8 | 2,4,10,2,6,7,4,9 | 7,10,7,7,3,3,6,4 | 2,10,4,5,7,3,9,10 | 8,5,6,8,9,8,9,4 | 7,4,4,10,10,9,10,3 | 9,6,9,1,7,2,8,3 | 5,2,9,7,5,7,3,4 | 6,8,4,3,4,9,7,3 | 3,10,8,9,4,1,2,4 | 7,5,3,2,2,3,1,7 | 5,6,5,8,7,4,7,4 |];
